149
Route #1: 1 80 
Route #2: 2 35 
Route #3: 3 47 
Route #4: 4 57 92 
Route #5: 5 90 
Route #6: 6 82 
Route #7: 7 55 
Route #8: 8 28 87 
Route #9: 9 54 109 
Route #10: 10 94 
Route #11: 11 81 
Route #12: 12 44 
Route #13: 13 65 
Route #14: 14 106 
Route #15: 15 36 67 89 
Route #16: 16 62 
Route #17: 17 30 85 
Route #18: 18 79 
Route #19: 19 58 
Route #20: 20 84 
Route #21: 21 51 99 
Route #22: 22 63 
Route #23: 23 52 113 
Route #24: 24 97 
Route #25: 25 60 88 110 142 
Route #26: 26 93 
Route #27: 27 53 105 
Route #28: 29 59 
Route #29: 31 69 104 
Route #30: 32 
Route #31: 33 75 86 
Route #32: 34 98 
Route #33: 37 111 
Route #34: 38 56 78 125 
Route #35: 39 50 96 121 
Route #36: 40 91 116 
Route #37: 41 77 136 
Route #38: 42 66 83 
Route #39: 43 115 
Route #40: 45 61 127 
Route #41: 46 101 
Route #42: 48 71 108 144 
Route #43: 49 145 
Route #44: 64 107 
Route #45: 68 95 102 129 163 
Route #46: 70 114 137 
Route #47: 72 100 162 
Route #48: 73 122 
Route #49: 74 139 
Route #50: 76 103 131 183 
Route #51: 112 150 182 
Route #52: 117 148 194 231 
Route #53: 118 201 
Route #54: 119 193 
Route #55: 120 173 224 
Route #56: 123 207 
Route #57: 124 175 
Route #58: 126 191 209 
Route #59: 128 146 212 
Route #60: 130 152 174 218 249 
Route #61: 132 176 226 
Route #62: 133 206 
Route #63: 134 222 
Route #64: 135 179 228 
Route #65: 138 151 192 210 230 
Route #66: 140 214 
Route #67: 141 167 199 217 236 255 
Route #68: 143 190 259 
Route #69: 147 204 
Route #70: 149 164 205 246 
Route #71: 153 172 233 
Route #72: 154 202 223 235 
Route #73: 155 184 238 
Route #74: 156 178 213 260 
Route #75: 157 220 
Route #76: 158 203 258 
Route #77: 159 227 
Route #78: 160 229 
Route #79: 161 244 
Route #80: 165 232 
Route #81: 166 189 237 
Route #82: 168 219 251 
Route #83: 169 211 242 276 
Route #84: 170 243 299 
Route #85: 171 216 
Route #86: 177 241 
Route #87: 180 272 
Route #88: 181 215 273 312 
Route #89: 185 240 287 
Route #90: 186 221 274 
Route #91: 187 245 323 
Route #92: 188 263 
Route #93: 195 250 296 
Route #94: 196 252 307 
Route #95: 197 234 293 
Route #96: 198 248 288 
Route #97: 200 247 309 
Route #98: 208 225 295 
Route #99: 239 304 
Route #100: 253 343 
Route #101: 254 329 
Route #102: 256 314 360 
Route #103: 257 347 
Route #104: 261 310 345 373 
Route #105: 262 338 356 
Route #106: 264 340 
Route #107: 265 354 
Route #108: 266 332 348 391 
Route #109: 267 313 337 378 396 
Route #110: 268 350 
Route #111: 269 302 331 375 
Route #112: 270 321 352 
Route #113: 271 361 
Route #114: 275 349 
Route #115: 277 358 
Route #116: 278 316 364 388 
Route #117: 279 359 
Route #118: 280 328 372 
Route #119: 281 303 367 389 
Route #120: 282 346 
Route #121: 283 319 335 357 383 394 
Route #122: 284 326 400 
Route #123: 285 351 
Route #124: 286 382 
Route #125: 289 363 
Route #126: 290 353 
Route #127: 291 377 
Route #128: 292 365 
Route #129: 294 355 
Route #130: 297 370 
Route #131: 298 336 393 
Route #132: 300 362 
Route #133: 301 344 392 
Route #134: 305 379 
Route #135: 306 387 
Route #136: 308 374 
Route #137: 311 341 398 
Route #138: 315 399 
Route #139: 317 366 
Route #140: 318 342 371 
Route #141: 320 368 390 
Route #142: 322 381 
Route #143: 324 380 
Route #144: 325 376 
Route #145: 327 384 
Route #146: 330 386 
Route #147: 333 369 395 
Route #148: 334 385 
Route #149: 339 397 
Cost 149.0
